# Solution for model micodag
# Objective value = 8.6454489587221168e+00
s_0_1 0
s_1_0 0
s_0_2 0
s_2_0 0
s_0_4 0
s_4_0 2.0833617835486962e-01
s_1_2 0
s_2_1 3.5091065792905773e-01
s_1_3 0
s_3_1 2.4031987165719082e-01
s_2_4 0
s_4_2 4.1267690773982157e-01
s_4_5 0
s_5_4 5.5489263524024190e-01
s_0_0 6.1975416816734441e-01
s_1_1 6.2497494746155580e-01
s_2_2 6.2320899059138446e-01
s_3_3 6.1606150715697772e-01
s_4_4 6.6532263116793766e-01
s_5_5 0.883228505927997
Gamma_0_0 7.8724466855441122e-01
Gamma_0_1 0
Gamma_0_2 0
Gamma_0_3 0
Gamma_0_4 0
Gamma_0_5 0
Gamma_1_0 0
Gamma_1_1 0.790553570266782
Gamma_1_2 0
Gamma_1_3 0
Gamma_1_4 0
Gamma_1_5 0
Gamma_2_0 0
Gamma_2_1 5.9237712475167181e-01
Gamma_2_2 7.8943586857412607e-01
Gamma_2_3 0
Gamma_2_4 0
Gamma_2_5 0
Gamma_3_0 0
Gamma_3_1 4.9022430749320395e-01
Gamma_3_2 0
Gamma_3_3 7.8489585752313518e-01
Gamma_3_4 0
Gamma_3_5 0
Gamma_4_0 -4.5643858114194280e-01
Gamma_4_1 0
Gamma_4_2 -6.4239933665892091e-01
Gamma_4_3 0
Gamma_4_4 8.1567311538871867e-01
Gamma_4_5 0
Gamma_5_0 0
Gamma_5_1 0
Gamma_5_2 0
Gamma_5_3 0
Gamma_5_4 -0.744911159293672
Gamma_5_5 9.3980237599614380e-01
psi_0 2
psi_1 3
psi_2 2
psi_3 0
psi_4 1
psi_5 0
g_0_0 0
g_0_1 0
g_0_2 0
g_0_3 0
g_0_4 0
g_0_5 0
g_1_0 0
g_1_1 0
g_1_2 0
g_1_3 0
g_1_4 0
g_1_5 0
g_2_0 0
g_2_1 1
g_2_2 0
g_2_3 0
g_2_4 0
g_2_5 0
g_3_0 0
g_3_1 1
g_3_2 0
g_3_3 0
g_3_4 0
g_3_5 0
g_4_0 1
g_4_1 0
g_4_2 1
g_4_3 0
g_4_4 0
g_4_5 0
g_5_0 0
g_5_1 0
g_5_2 0
g_5_3 0
g_5_4 1
g_5_5 0
T_0 4.7843238252697518e-01
T_1 4.7004371411063062e-01
T_2 4.7287335803514452e-01
T_3 4.8440847115242036e-01
T_4 4.0748319632713503e-01
T_5 1.2417132824646160e-01
